
c turning on binary mode checking

c parsing input formula with 6494 variables and 27094 clauses

c finished parsing, read 20211 bytes from proof file

c detected empty clause; start verification via backward checking

c 1605 of 27094 clauses in core                            

c 53 of 4952 lemmas in core using 11288 resolution steps

c 0 RAT lemmas in core; 0 redundant literals in core lemmas

s VERIFIED

c verification time: 0.059 seconds
